;; Produced with Z3_solver_to_string()
(declare-fun sea.sp0_0 () (_ BitVec 64))
(declare-fun main@%_3_0 () (_ BitVec 64))
(declare-fun main@%_4_0 () (_ BitVec 8))
(declare-fun main@%_0_0 () (_ BitVec 8))
(declare-fun main@%_9_0 () (_ BitVec 64))
(declare-fun main@%_10_0 () (_ BitVec 8))
(declare-fun main@%_18_0 () (_ BitVec 8))
(declare-fun main@%_26_0 () (_ BitVec 64))
(declare-fun main@%_27_0 () (_ BitVec 8))
(declare-fun main@%_32_0 () (_ BitVec 64))
(declare-fun main@%_33_0 () (_ BitVec 8))
(declare-fun main@%_42_0 () (_ BitVec 8))
(declare-fun main@%_50_0 () (_ BitVec 64))
(declare-fun main@%_51_0 () (_ BitVec 8))
(declare-fun main@%_56_0 () (_ BitVec 64))
(declare-fun main@%_57_0 () (_ BitVec 8))
(declare-fun main@%_84_0 () (_ BitVec 8))
(declare-fun main@%_92_0 () (_ BitVec 64))
(declare-fun main@%_93_0 () (_ BitVec 8))
(declare-fun main@%_98_0 () (_ BitVec 64))
(declare-fun main@%_99_0 () (_ BitVec 8))
(declare-fun main@%_109_0 () (_ BitVec 8))
(declare-fun main@%_117_0 () (_ BitVec 64))
(declare-fun main@%_118_0 () (_ BitVec 8))
(declare-fun main@%_123_0 () (_ BitVec 64))
(declare-fun main@%_124_0 () (_ BitVec 8))
(declare-fun main@%_134_0 () (_ BitVec 8))
(declare-fun main@%_142_0 () (_ BitVec 64))
(declare-fun main@%_143_0 () (_ BitVec 8))
(declare-fun main@%_148_0 () (_ BitVec 64))
(declare-fun main@%_149_0 () (_ BitVec 8))
(declare-fun main@%_159_0 () (_ BitVec 8))
(declare-fun main@%_167_0 () (_ BitVec 64))
(declare-fun main@%_168_0 () (_ BitVec 8))
(declare-fun main@%_173_0 () (_ BitVec 64))
(declare-fun main@%_174_0 () (_ BitVec 8))
(declare-fun main@%_184_0 () (_ BitVec 8))
(declare-fun main@%_192_0 () (_ BitVec 64))
(declare-fun main@%_193_0 () (_ BitVec 8))
(declare-fun main@%_198_0 () (_ BitVec 64))
(declare-fun main@%_199_0 () (_ BitVec 8))
(declare-fun main@%_209_0 () (_ BitVec 8))
(declare-fun main@%_217_0 () (_ BitVec 64))
(declare-fun main@%_218_0 () (_ BitVec 8))
(declare-fun main@%_223_0 () (_ BitVec 64))
(declare-fun main@%_224_0 () (_ BitVec 8))
(declare-fun main@%_234_0 () (_ BitVec 8))
(declare-fun main@%_242_0 () (_ BitVec 64))
(declare-fun main@%_243_0 () (_ BitVec 8))
(declare-fun main@%_248_0 () (_ BitVec 64))
(declare-fun main@%_249_0 () (_ BitVec 8))
(declare-fun main@%_259_0 () (_ BitVec 8))
(declare-fun main@%_267_0 () (_ BitVec 64))
(declare-fun main@%_268_0 () (_ BitVec 8))
(declare-fun main@%_273_0 () (_ BitVec 64))
(declare-fun main@%_274_0 () (_ BitVec 8))
(declare-fun main@%_284_0 () (_ BitVec 8))
(declare-fun main@%_292_0 () (_ BitVec 64))
(declare-fun main@%_293_0 () (_ BitVec 8))
(declare-fun main@%_298_0 () (_ BitVec 64))
(declare-fun main@%_299_0 () (_ BitVec 8))
(declare-fun main@%_309_0 () (_ BitVec 8))
(declare-fun main@%_317_0 () (_ BitVec 64))
(declare-fun main@%_318_0 () (_ BitVec 8))
(declare-fun main@%_323_0 () (_ BitVec 64))
(declare-fun main@%_324_0 () (_ BitVec 8))
(declare-fun main@%_334_0 () (_ BitVec 8))
(declare-fun main@%_342_0 () (_ BitVec 64))
(declare-fun main@%_343_0 () (_ BitVec 8))
(declare-fun main@%_348_0 () (_ BitVec 64))
(declare-fun main@%_349_0 () (_ BitVec 8))
(declare-fun main@%_359_0 () (_ BitVec 8))
(declare-fun main@%_367_0 () (_ BitVec 64))
(declare-fun main@%_368_0 () (_ BitVec 8))
(declare-fun main@%_373_0 () (_ BitVec 64))
(declare-fun main@%_374_0 () (_ BitVec 8))
(declare-fun main@%_384_0 () (_ BitVec 8))
(declare-fun main@%_392_0 () (_ BitVec 64))
(declare-fun main@%_393_0 () (_ BitVec 8))
(declare-fun main@%_398_0 () (_ BitVec 64))
(declare-fun main@%_399_0 () (_ BitVec 8))
(declare-fun main@%_409_0 () (_ BitVec 8))
(declare-fun main@%_417_0 () (_ BitVec 64))
(declare-fun main@%_418_0 () (_ BitVec 8))
(declare-fun main@%_423_0 () (_ BitVec 64))
(declare-fun main@%_424_0 () (_ BitVec 8))
(declare-fun main@%_434_0 () (_ BitVec 8))
(declare-fun main@%_442_0 () (_ BitVec 64))
(declare-fun main@%_443_0 () (_ BitVec 8))
(declare-fun main@%_448_0 () (_ BitVec 64))
(declare-fun main@%_449_0 () (_ BitVec 8))
(declare-fun main@%_459_0 () (_ BitVec 8))
(declare-fun main@%_467_0 () (_ BitVec 64))
(declare-fun main@%_468_0 () (_ BitVec 8))
(declare-fun main@%_470_0 () (_ BitVec 64))
(declare-fun main@%_471_0 () (_ BitVec 8))
(declare-fun main@%_483_0 () (_ BitVec 8))
(assert (= #b000 ((_ extract 2 0) sea.sp0_0)))
(assert (bvule sea.sp0_0 #x00000000c0000000))
(assert (bvuge sea.sp0_0 #x00000000bf700000))
(assert (let ((a!1 (ite (= ((_ extract 0 0) main@%_0_0) #b1)
                #x0000000000000000
                (ite (= ((_ extract 0 0) main@%_10_0) #b1)
                     main@%_9_0
                     #x0000000000000000)))
      (a!2 (ite (= ((_ extract 0 0) main@%_0_0) #b1)
                #x0000000000000000
                (ite (= ((_ extract 0 0) main@%_4_0) #b1)
                     main@%_3_0
                     #x0000000000000000)))
      (a!3 (ite (= ((_ extract 0 0) main@%_0_0) #b1)
                true
                (= ((_ extract 0 0) (bvor main@%_10_0 main@%_4_0)) #b1)))
      (a!8 (ite (= ((_ extract 0 0) main@%_18_0) #b1)
                true
                (= ((_ extract 0 0) (bvor main@%_33_0 main@%_27_0)) #b1)))
      (a!13 (ite (= ((_ extract 0 0) main@%_42_0) #b1)
                 true
                 (= ((_ extract 0 0) (bvor main@%_57_0 main@%_51_0)) #b1)))
      (a!18 (ite (= ((_ extract 0 0) main@%_84_0) #b1)
                 true
                 (= ((_ extract 0 0) (bvor main@%_99_0 main@%_93_0)) #b1)))
      (a!23 (ite (= ((_ extract 0 0) main@%_109_0) #b1)
                 true
                 (= ((_ extract 0 0) (bvor main@%_124_0 main@%_118_0)) #b1)))
      (a!28 (ite (= ((_ extract 0 0) main@%_134_0) #b1)
                 true
                 (= ((_ extract 0 0) (bvor main@%_149_0 main@%_143_0)) #b1)))
      (a!33 (ite (= ((_ extract 0 0) main@%_159_0) #b1)
                 true
                 (= ((_ extract 0 0) (bvor main@%_174_0 main@%_168_0)) #b1)))
      (a!38 (ite (= ((_ extract 0 0) main@%_184_0) #b1)
                 true
                 (= ((_ extract 0 0) (bvor main@%_199_0 main@%_193_0)) #b1)))
      (a!43 (ite (= ((_ extract 0 0) main@%_209_0) #b1)
                 true
                 (= ((_ extract 0 0) (bvor main@%_224_0 main@%_218_0)) #b1)))
      (a!48 (ite (= ((_ extract 0 0) main@%_234_0) #b1)
                 true
                 (= ((_ extract 0 0) (bvor main@%_249_0 main@%_243_0)) #b1)))
      (a!53 (ite (= ((_ extract 0 0) main@%_259_0) #b1)
                 true
                 (= ((_ extract 0 0) (bvor main@%_274_0 main@%_268_0)) #b1)))
      (a!58 (ite (= ((_ extract 0 0) main@%_284_0) #b1)
                 true
                 (= ((_ extract 0 0) (bvor main@%_299_0 main@%_293_0)) #b1)))
      (a!63 (ite (= ((_ extract 0 0) main@%_309_0) #b1)
                 true
                 (= ((_ extract 0 0) (bvor main@%_324_0 main@%_318_0)) #b1)))
      (a!68 (ite (= ((_ extract 0 0) main@%_334_0) #b1)
                 true
                 (= ((_ extract 0 0) (bvor main@%_349_0 main@%_343_0)) #b1)))
      (a!73 (ite (= ((_ extract 0 0) main@%_359_0) #b1)
                 true
                 (= ((_ extract 0 0) (bvor main@%_374_0 main@%_368_0)) #b1)))
      (a!78 (ite (= ((_ extract 0 0) main@%_384_0) #b1)
                 true
                 (= ((_ extract 0 0) (bvor main@%_399_0 main@%_393_0)) #b1)))
      (a!83 (ite (= ((_ extract 0 0) main@%_409_0) #b1)
                 true
                 (= ((_ extract 0 0) (bvor main@%_424_0 main@%_418_0)) #b1)))
      (a!88 (ite (= ((_ extract 0 0) main@%_434_0) #b1)
                 true
                 (= ((_ extract 0 0) (bvor main@%_449_0 main@%_443_0)) #b1)))
      (a!94 (ite (= ((_ extract 0 0) main@%_459_0) #b1)
                 true
                 (= ((_ extract 0 0) (bvor main@%_471_0 main@%_468_0)) #b1))))
(let ((a!4 (ite (= ((_ extract 0 0) main@%_18_0) #b1)
                #x00000000000000000000000000000000
                (ite a!3
                     (bvmul ((_ zero_extend 64) a!1) ((_ zero_extend 64) a!2))
                     #x00000000000000000000000000000000)))
      (a!6 (ite (= ((_ extract 0 0) main@%_18_0) #b1)
                #x0000000000000000
                (ite (= ((_ extract 0 0) main@%_33_0) #b1) main@%_32_0 a!1)))
      (a!7 (ite (= ((_ extract 0 0) main@%_18_0) #b1)
                #x0000000000000000
                (ite (= ((_ extract 0 0) main@%_27_0) #b1) main@%_26_0 a!2))))
(let ((a!5 (= (ite (= ((_ extract 0 0) main@%_18_0) #b1)
                   #x00000000000000000000000000000000
                   (bvmul ((_ zero_extend 64) a!1) ((_ zero_extend 64) a!2)))
              a!4))
      (a!9 (ite (= ((_ extract 0 0) main@%_42_0) #b1)
                #x00000000000000000000000000000000
                (ite a!8
                     (bvmul ((_ zero_extend 64) a!6) ((_ zero_extend 64) a!7))
                     a!4)))
      (a!11 (ite (= ((_ extract 0 0) main@%_42_0) #b1)
                 #x0000000000000000
                 (ite (= ((_ extract 0 0) main@%_57_0) #b1) main@%_56_0 a!6)))
      (a!12 (ite (= ((_ extract 0 0) main@%_42_0) #b1)
                 #x0000000000000000
                 (ite (= ((_ extract 0 0) main@%_51_0) #b1) main@%_50_0 a!7))))
(let ((a!10 (= (ite (= ((_ extract 0 0) main@%_42_0) #b1)
                    #x00000000000000000000000000000000
                    (bvmul ((_ zero_extend 64) a!6) ((_ zero_extend 64) a!7)))
               a!9))
      (a!14 (ite (= ((_ extract 0 0) main@%_84_0) #b1)
                 #x00000000000000000000000000000000
                 (ite a!13
                      (bvmul ((_ zero_extend 64) a!11)
                             ((_ zero_extend 64) a!12))
                      a!9)))
      (a!16 (ite (= ((_ extract 0 0) main@%_84_0) #b1)
                 #x0000000000000000
                 (ite (= ((_ extract 0 0) main@%_99_0) #b1) main@%_98_0 a!11)))
      (a!17 (ite (= ((_ extract 0 0) main@%_84_0) #b1)
                 #x0000000000000000
                 (ite (= ((_ extract 0 0) main@%_93_0) #b1) main@%_92_0 a!12))))
(let ((a!15 (= (ite (= ((_ extract 0 0) main@%_84_0) #b1)
                    #x00000000000000000000000000000000
                    (bvmul ((_ zero_extend 64) a!11) ((_ zero_extend 64) a!12)))
               a!14))
      (a!19 (ite (= ((_ extract 0 0) main@%_109_0) #b1)
                 #x00000000000000000000000000000000
                 (ite a!18
                      (bvmul ((_ zero_extend 64) a!16)
                             ((_ zero_extend 64) a!17))
                      a!14)))
      (a!21 (ite (= ((_ extract 0 0) main@%_109_0) #b1)
                 #x0000000000000000
                 (ite (= ((_ extract 0 0) main@%_124_0) #b1) main@%_123_0 a!16)))
      (a!22 (ite (= ((_ extract 0 0) main@%_109_0) #b1)
                 #x0000000000000000
                 (ite (= ((_ extract 0 0) main@%_118_0) #b1) main@%_117_0 a!17))))
(let ((a!20 (= (ite (= ((_ extract 0 0) main@%_109_0) #b1)
                    #x00000000000000000000000000000000
                    (bvmul ((_ zero_extend 64) a!16) ((_ zero_extend 64) a!17)))
               a!19))
      (a!24 (ite (= ((_ extract 0 0) main@%_134_0) #b1)
                 #x00000000000000000000000000000000
                 (ite a!23
                      (bvmul ((_ zero_extend 64) a!21)
                             ((_ zero_extend 64) a!22))
                      a!19)))
      (a!26 (ite (= ((_ extract 0 0) main@%_134_0) #b1)
                 #x0000000000000000
                 (ite (= ((_ extract 0 0) main@%_149_0) #b1) main@%_148_0 a!21)))
      (a!27 (ite (= ((_ extract 0 0) main@%_134_0) #b1)
                 #x0000000000000000
                 (ite (= ((_ extract 0 0) main@%_143_0) #b1) main@%_142_0 a!22))))
(let ((a!25 (= (ite (= ((_ extract 0 0) main@%_134_0) #b1)
                    #x00000000000000000000000000000000
                    (bvmul ((_ zero_extend 64) a!21) ((_ zero_extend 64) a!22)))
               a!24))
      (a!29 (ite (= ((_ extract 0 0) main@%_159_0) #b1)
                 #x00000000000000000000000000000000
                 (ite a!28
                      (bvmul ((_ zero_extend 64) a!26)
                             ((_ zero_extend 64) a!27))
                      a!24)))
      (a!31 (ite (= ((_ extract 0 0) main@%_159_0) #b1)
                 #x0000000000000000
                 (ite (= ((_ extract 0 0) main@%_174_0) #b1) main@%_173_0 a!26)))
      (a!32 (ite (= ((_ extract 0 0) main@%_159_0) #b1)
                 #x0000000000000000
                 (ite (= ((_ extract 0 0) main@%_168_0) #b1) main@%_167_0 a!27))))
(let ((a!30 (= (ite (= ((_ extract 0 0) main@%_159_0) #b1)
                    #x00000000000000000000000000000000
                    (bvmul ((_ zero_extend 64) a!26) ((_ zero_extend 64) a!27)))
               a!29))
      (a!34 (ite (= ((_ extract 0 0) main@%_184_0) #b1)
                 #x00000000000000000000000000000000
                 (ite a!33
                      (bvmul ((_ zero_extend 64) a!31)
                             ((_ zero_extend 64) a!32))
                      a!29)))
      (a!36 (ite (= ((_ extract 0 0) main@%_184_0) #b1)
                 #x0000000000000000
                 (ite (= ((_ extract 0 0) main@%_199_0) #b1) main@%_198_0 a!31)))
      (a!37 (ite (= ((_ extract 0 0) main@%_184_0) #b1)
                 #x0000000000000000
                 (ite (= ((_ extract 0 0) main@%_193_0) #b1) main@%_192_0 a!32))))
(let ((a!35 (= (ite (= ((_ extract 0 0) main@%_184_0) #b1)
                    #x00000000000000000000000000000000
                    (bvmul ((_ zero_extend 64) a!31) ((_ zero_extend 64) a!32)))
               a!34))
      (a!39 (ite (= ((_ extract 0 0) main@%_209_0) #b1)
                 #x00000000000000000000000000000000
                 (ite a!38
                      (bvmul ((_ zero_extend 64) a!36)
                             ((_ zero_extend 64) a!37))
                      a!34)))
      (a!41 (ite (= ((_ extract 0 0) main@%_209_0) #b1)
                 #x0000000000000000
                 (ite (= ((_ extract 0 0) main@%_224_0) #b1) main@%_223_0 a!36)))
      (a!42 (ite (= ((_ extract 0 0) main@%_209_0) #b1)
                 #x0000000000000000
                 (ite (= ((_ extract 0 0) main@%_218_0) #b1) main@%_217_0 a!37))))
(let ((a!40 (= (ite (= ((_ extract 0 0) main@%_209_0) #b1)
                    #x00000000000000000000000000000000
                    (bvmul ((_ zero_extend 64) a!36) ((_ zero_extend 64) a!37)))
               a!39))
      (a!44 (ite (= ((_ extract 0 0) main@%_234_0) #b1)
                 #x00000000000000000000000000000000
                 (ite a!43
                      (bvmul ((_ zero_extend 64) a!41)
                             ((_ zero_extend 64) a!42))
                      a!39)))
      (a!46 (ite (= ((_ extract 0 0) main@%_234_0) #b1)
                 #x0000000000000000
                 (ite (= ((_ extract 0 0) main@%_249_0) #b1) main@%_248_0 a!41)))
      (a!47 (ite (= ((_ extract 0 0) main@%_234_0) #b1)
                 #x0000000000000000
                 (ite (= ((_ extract 0 0) main@%_243_0) #b1) main@%_242_0 a!42))))
(let ((a!45 (= (ite (= ((_ extract 0 0) main@%_234_0) #b1)
                    #x00000000000000000000000000000000
                    (bvmul ((_ zero_extend 64) a!41) ((_ zero_extend 64) a!42)))
               a!44))
      (a!49 (ite (= ((_ extract 0 0) main@%_259_0) #b1)
                 #x00000000000000000000000000000000
                 (ite a!48
                      (bvmul ((_ zero_extend 64) a!46)
                             ((_ zero_extend 64) a!47))
                      a!44)))
      (a!51 (ite (= ((_ extract 0 0) main@%_259_0) #b1)
                 #x0000000000000000
                 (ite (= ((_ extract 0 0) main@%_274_0) #b1) main@%_273_0 a!46)))
      (a!52 (ite (= ((_ extract 0 0) main@%_259_0) #b1)
                 #x0000000000000000
                 (ite (= ((_ extract 0 0) main@%_268_0) #b1) main@%_267_0 a!47))))
(let ((a!50 (= (ite (= ((_ extract 0 0) main@%_259_0) #b1)
                    #x00000000000000000000000000000000
                    (bvmul ((_ zero_extend 64) a!46) ((_ zero_extend 64) a!47)))
               a!49))
      (a!54 (ite (= ((_ extract 0 0) main@%_284_0) #b1)
                 #x00000000000000000000000000000000
                 (ite a!53
                      (bvmul ((_ zero_extend 64) a!51)
                             ((_ zero_extend 64) a!52))
                      a!49)))
      (a!56 (ite (= ((_ extract 0 0) main@%_284_0) #b1)
                 #x0000000000000000
                 (ite (= ((_ extract 0 0) main@%_299_0) #b1) main@%_298_0 a!51)))
      (a!57 (ite (= ((_ extract 0 0) main@%_284_0) #b1)
                 #x0000000000000000
                 (ite (= ((_ extract 0 0) main@%_293_0) #b1) main@%_292_0 a!52))))
(let ((a!55 (= (ite (= ((_ extract 0 0) main@%_284_0) #b1)
                    #x00000000000000000000000000000000
                    (bvmul ((_ zero_extend 64) a!51) ((_ zero_extend 64) a!52)))
               a!54))
      (a!59 (ite (= ((_ extract 0 0) main@%_309_0) #b1)
                 #x00000000000000000000000000000000
                 (ite a!58
                      (bvmul ((_ zero_extend 64) a!56)
                             ((_ zero_extend 64) a!57))
                      a!54)))
      (a!61 (ite (= ((_ extract 0 0) main@%_309_0) #b1)
                 #x0000000000000000
                 (ite (= ((_ extract 0 0) main@%_324_0) #b1) main@%_323_0 a!56)))
      (a!62 (ite (= ((_ extract 0 0) main@%_309_0) #b1)
                 #x0000000000000000
                 (ite (= ((_ extract 0 0) main@%_318_0) #b1) main@%_317_0 a!57))))
(let ((a!60 (= (ite (= ((_ extract 0 0) main@%_309_0) #b1)
                    #x00000000000000000000000000000000
                    (bvmul ((_ zero_extend 64) a!56) ((_ zero_extend 64) a!57)))
               a!59))
      (a!64 (ite (= ((_ extract 0 0) main@%_334_0) #b1)
                 #x00000000000000000000000000000000
                 (ite a!63
                      (bvmul ((_ zero_extend 64) a!61)
                             ((_ zero_extend 64) a!62))
                      a!59)))
      (a!66 (ite (= ((_ extract 0 0) main@%_334_0) #b1)
                 #x0000000000000000
                 (ite (= ((_ extract 0 0) main@%_349_0) #b1) main@%_348_0 a!61)))
      (a!67 (ite (= ((_ extract 0 0) main@%_334_0) #b1)
                 #x0000000000000000
                 (ite (= ((_ extract 0 0) main@%_343_0) #b1) main@%_342_0 a!62))))
(let ((a!65 (= (ite (= ((_ extract 0 0) main@%_334_0) #b1)
                    #x00000000000000000000000000000000
                    (bvmul ((_ zero_extend 64) a!61) ((_ zero_extend 64) a!62)))
               a!64))
      (a!69 (ite (= ((_ extract 0 0) main@%_359_0) #b1)
                 #x00000000000000000000000000000000
                 (ite a!68
                      (bvmul ((_ zero_extend 64) a!66)
                             ((_ zero_extend 64) a!67))
                      a!64)))
      (a!71 (ite (= ((_ extract 0 0) main@%_359_0) #b1)
                 #x0000000000000000
                 (ite (= ((_ extract 0 0) main@%_374_0) #b1) main@%_373_0 a!66)))
      (a!72 (ite (= ((_ extract 0 0) main@%_359_0) #b1)
                 #x0000000000000000
                 (ite (= ((_ extract 0 0) main@%_368_0) #b1) main@%_367_0 a!67))))
(let ((a!70 (= (ite (= ((_ extract 0 0) main@%_359_0) #b1)
                    #x00000000000000000000000000000000
                    (bvmul ((_ zero_extend 64) a!66) ((_ zero_extend 64) a!67)))
               a!69))
      (a!74 (ite (= ((_ extract 0 0) main@%_384_0) #b1)
                 #x00000000000000000000000000000000
                 (ite a!73
                      (bvmul ((_ zero_extend 64) a!71)
                             ((_ zero_extend 64) a!72))
                      a!69)))
      (a!76 (ite (= ((_ extract 0 0) main@%_384_0) #b1)
                 #x0000000000000000
                 (ite (= ((_ extract 0 0) main@%_399_0) #b1) main@%_398_0 a!71)))
      (a!77 (ite (= ((_ extract 0 0) main@%_384_0) #b1)
                 #x0000000000000000
                 (ite (= ((_ extract 0 0) main@%_393_0) #b1) main@%_392_0 a!72))))
(let ((a!75 (= (ite (= ((_ extract 0 0) main@%_384_0) #b1)
                    #x00000000000000000000000000000000
                    (bvmul ((_ zero_extend 64) a!71) ((_ zero_extend 64) a!72)))
               a!74))
      (a!79 (ite (= ((_ extract 0 0) main@%_409_0) #b1)
                 #x00000000000000000000000000000000
                 (ite a!78
                      (bvmul ((_ zero_extend 64) a!76)
                             ((_ zero_extend 64) a!77))
                      a!74)))
      (a!81 (ite (= ((_ extract 0 0) main@%_409_0) #b1)
                 #x0000000000000000
                 (ite (= ((_ extract 0 0) main@%_424_0) #b1) main@%_423_0 a!76)))
      (a!82 (ite (= ((_ extract 0 0) main@%_409_0) #b1)
                 #x0000000000000000
                 (ite (= ((_ extract 0 0) main@%_418_0) #b1) main@%_417_0 a!77))))
(let ((a!80 (= (ite (= ((_ extract 0 0) main@%_409_0) #b1)
                    #x00000000000000000000000000000000
                    (bvmul ((_ zero_extend 64) a!76) ((_ zero_extend 64) a!77)))
               a!79))
      (a!84 (ite (= ((_ extract 0 0) main@%_434_0) #b1)
                 #x00000000000000000000000000000000
                 (ite a!83
                      (bvmul ((_ zero_extend 64) a!81)
                             ((_ zero_extend 64) a!82))
                      a!79)))
      (a!86 (ite (= ((_ extract 0 0) main@%_434_0) #b1)
                 #x0000000000000000
                 (ite (= ((_ extract 0 0) main@%_449_0) #b1) main@%_448_0 a!81)))
      (a!87 (ite (= ((_ extract 0 0) main@%_434_0) #b1)
                 #x0000000000000000
                 (ite (= ((_ extract 0 0) main@%_443_0) #b1) main@%_442_0 a!82))))
(let ((a!85 (= (ite (= ((_ extract 0 0) main@%_434_0) #b1)
                    #x00000000000000000000000000000000
                    (bvmul ((_ zero_extend 64) a!81) ((_ zero_extend 64) a!82)))
               a!84))
      (a!89 (ite (= ((_ extract 0 0) main@%_459_0) #b1)
                 #x00000000000000000000000000000000
                 (ite a!88
                      (bvmul ((_ zero_extend 64) a!86)
                             ((_ zero_extend 64) a!87))
                      a!84)))
      (a!91 ((_ zero_extend 64)
              (ite (= ((_ extract 0 0) main@%_471_0) #b1) main@%_470_0 a!86)))
      (a!92 ((_ zero_extend 64)
              (ite (= ((_ extract 0 0) main@%_468_0) #b1) main@%_467_0 a!87))))
(let ((a!90 (= (ite (= ((_ extract 0 0) main@%_459_0) #b1)
                    #x00000000000000000000000000000000
                    (bvmul ((_ zero_extend 64) a!86) ((_ zero_extend 64) a!87)))
               a!89))
      (a!93 (ite (= ((_ extract 0 0) main@%_483_0) #b1)
                 #x00000000000000000000000000000000
                 (ite (= ((_ extract 0 0) main@%_459_0) #b1)
                      #x00000000000000000000000000000000
                      (bvmul a!91 a!92))))
      (a!95 (ite a!94
                 (ite (= ((_ extract 0 0) main@%_459_0) #b1)
                      #x00000000000000000000000000000000
                      (bvmul a!91 a!92))
                 a!89)))
(let ((a!96 (= a!93
               (ite (= ((_ extract 0 0) main@%_483_0) #b1)
                    #x00000000000000000000000000000000
                    a!95))))
(let ((a!97 (ite a!85 (ite a!90 (and true (xor a!96 true)) true) true)))
(let ((a!98 (ite a!65 (ite a!70 (ite a!75 (ite a!80 a!97 true) true) true) true)))
(let ((a!99 (ite a!45 (ite a!50 (ite a!55 (ite a!60 a!98 true) true) true) true)))
(let ((a!100 (ite a!25
                  (ite a!30 (ite a!35 (ite a!40 a!99 true) true) true)
                  true)))
  (ite a!5 (ite a!10 (ite a!15 (ite a!20 a!100 true) true) true) true)))))))))))))))))))))))))))

(check-sat)
